WARNING: for repeatability, setting FPU to use double precision
============================[ Problem Statistics ]=============================
|                                                                             |
|  Number of variables:           100                                         |
|  Number of clauses:             449                                         |
|  Parse time:                   0.00 s                                       |
|  Eliminated clauses:           0.00 Mb                                      |
|  Simplification time:          0.00 s                                       |
|                                                                             |
============================[ Search Statistics ]==============================
| Conflicts |          ORIGINAL         |          LEARNT          | Progress |
|           |    Vars  Clauses Literals |    Limit  Clauses Lit/Cl |          |
===============================================================================
|       100 |      97      442     1336 |      162      100      7 |  0.010 % |
|       250 |      97      442     1336 |      178      169      7 |  0.010 % |
===============================================================================
restarts              : 3
conflicts             : 296            (86651 /sec)
decisions             : 364            (0.00 % random) (106557 /sec)
propagations          : 7559           (2212822 /sec)
conflict literals     : 2044           (17.78 % deleted)
Memory used           : 13.00 MB
CPU time              : 0.003416 s

SATISFIABLE
